1 18
2 17
3 16
4 3
5 9
6 1
7 13
8 6
9 6
10 19
11 1
12 5
13 4
14 7
15 2
16 1
17 20
18 5
19 20
20 6
21 1
22 1
23 10
24 16
25 13
26 14
27 5
28 4
29 20
30 11
31 8
32 6
33 5
34 3
35 1
36 4
37 3
38 2
39 11
40 19
41 18
42 19
43 6
44 4
45 5
46 16
47 20
48 1
49 11
50 1
51 18
52 5
53 6
54 17
55 18
56 3
57 19
58 11
59 9
60 1
61 3
62 3
63 1
64 4
65 2
66 2
67 1
68 1
69 5
70 1
71 4
72 3
73 3
74 4
75 2
76 1
77 4
78 3
79 16
80 3
81 1
82 4
83 2
84 17
85 8
86 20
87 20
88 8
89 4
90 6
91 11
92 19
93 18
94 20
95 1
96 8
97 12
98 4
99 16
100 1
101 6
102 9
103 10
104 8
105 1
106 4
107 3
108 2
109 4
110 1
111 17
112 17
113 16
114 16
115 15
116 4
117 18
118 20
119 16
120 17
121 5
122 1
123 17
124 5
125 16
126 1
127 19
128 10
129 10
130 1
131 3
132 10
133 2
134 4
135 4
136 1
137 3
138 1
139 2
140 15
141 15
142 19
143 15
144 10
145 8
146 1
147 7
148 8
149 6
150 20
151 16
152 17
153 19
154 4
155 1
156 3
157 5
158 6
159 3
160 1
161 3
162 5
163 4
164 7
165 16
166 8
167 13
168 17
169 1
170 16
171 5
172 7
173 18
174 6
175 14
176 18
177 11
178 1
179 7
180 8
181 5
182 17
183 18
184 13
185 6
186 18
187 17
188 5
189 5
190 1
191 1
192 7
193 19
194 17
195 5
196 3
197 1
198 1
199 11
200 4
201 7
202 2
203 4
204 1
205 1
206 11
207 11
208 3
209 16
210 9
211 9
212 9
213 4
214 18
215 17
216 1
217 9
218 16
219 4
220 6
221 16
222 7
223 9
224 8
225 4
226 5
227 6
228 6
229 18
230 6
231 13
232 2
233 3
234 1
235 1
236 1
237 2
238 20
239 17
240 2
241 7
242 5
243 11
244 5
245 17
246 8
247 13
248 13
249 11
250 3
251 13
252 3
253 13
254 3
255 15
256 13
257 15
258 15
259 8
260 5
261 4
262 8
263 18
264 5
265 19
266 12
267 18
268 11
269 5
270 18
271 10
272 6
273 13
274 7
275 19
276 4
277 1
278 5
279 6
280 3
281 1
282 2
283 11
284 6
285 1
286 5
287 6
288 6
289 5
290 16
291 17
292 10
293 10
294 5
295 16
296 10
297 11
298 16
299 5
300 19
301 18
302 20
303 8
304 5
305 5
306 1
307 2
308 4
309 1
310 1
311 4
312 2
313 2
314 1
315 20
316 8
317 12
318 16
319 16
320 6
321 20
322 19
323 5
324 14
325 18
326 18
327 12
328 11
329 1
330 1
331 4
332 6
333 5
334 19
335 2
336 9
337 15
338 16
339 20
340 1
341 8
342 2
343 16
344 10
345 1
346 2
347 4
348 4
349 4
350 5
351 1
352 10
353 4
354 6
355 1
356 4
357 4
358 7
359 18
360 14
361 5
362 7
363 2
364 1
365 19
366 20
367 13
368 7
369 1
370 16
371 13
372 5
373 6
374 2
375 16
376 3
377 11
378 8
379 7
380 1
381 1
382 19
383 10
384 4
385 5
386 14
387 5
388 15
389 2
390 3
391 18
392 1
393 1
394 2
395 1
396 2
397 2
398 2
399 2
400 17
401 5
402 8
403 3
404 7
405 19
406 10
407 8
408 3
409 2
410 1
411 3
412 2
413 19
414 20
415 6
416 17
417 1
418 5
419 20
420 4
421 3
422 1
423 6
424 10
425 1
426 2
427 4
428 1
429 3
430 10
431 18
432 16
433 11
434 20
435 14
436 5
437 18
438 17
439 16
440 15
441 8
442 6
443 1
444 20
445 1
446 17
447 7
448 11
449 19
450 8
451 1
452 10
453 5
454 17
455 1
456 11
457 2
458 3
459 5
460 11
461 20
